instances/knapsack/discrete/knapsack_140_10.kp
35168
140
715

71 7.1 17
43 4.3 2
5 0.5 75
46 4.6 19
55 5.5 37
37 3.7 4
36 3.6 81
95 9.5 43
100 10.0 70
33 3.3 34
27 2.7 90
94 9.4 74
39 3.9 14
63 6.3 5
36 3.6 50
72 7.2 3
76 7.6 93
3 0.3 1
88 8.8 22
57 5.7 97
72 7.2 21
99 9.9 42
3 0.3 83
74 7.4 71
72 7.2 44
59 5.9 54
81 8.1 55
23 2.3 95
1 0.1 29
6 0.6 20
13 1.3 36
67 6.7 51
87 8.7 51
60 6.0 10
39 3.9 7
80 8.0 12
35 3.5 28
44 4.4 26
3 0.3 14
6 0.6 27
58 5.8 79
85 8.5 17
57 5.7 97
45 4.5 6
22 2.2 66
18 1.8 78
25 2.5 88
37 3.7 20
34 3.4 88
71 7.1 65
62 6.2 98
59 5.9 10
88 8.8 98
79 7.9 92
80 8.0 27
99 9.9 73
96 9.6 86
2 0.2 71
99 9.9 75
57 5.7 30
52 5.2 11
90 9.0 37
23 2.3 97
50 5.0 73
7 0.7 54
83 8.3 48
84 8.4 80
34 3.4 61
95 9.5 12
97 9.7 29
85 8.5 8
53 5.3 54
57 5.7 48
82 8.2 97
95 9.5 78
80 8.0 93
54 5.4 41
78 7.8 88
60 6.0 7
30 3.0 67
53 5.3 62
33 3.3 89
54 5.4 93
53 5.3 41
25 2.5 36
49 4.9 28
75 7.5 73
99 9.9 50
41 4.1 27
14 1.4 18
32 3.2 49
16 1.6 29
56 5.6 93
39 3.9 64
67 6.7 15
64 6.4 42
44 4.4 8
40 4.0 55
7 0.7 64
35 3.5 4
44 4.4 48
35 3.5 77
61 6.1 82
3 0.3 49
100 10.0 70
81 8.1 78
10 1.0 69
26 2.6 80
58 5.8 77
84 8.4 60
94 9.4 57
46 4.6 41
36 3.6 13
76 7.6 99
52 5.2 61
18 1.8 60
30 3.0 2
72 7.2 36
28 2.8 25
60 6.0 22
7 0.7 37
12 1.2 94
27 2.7 37
98 9.8 2
60 6.0 31
38 3.8 28
83 8.3 88
31 3.1 57
90 9.0 55
74 7.4 88
77 7.7 94
92 9.2 82
50 5.0 47
35 3.5 26
68 6.8 37
37 3.7 27
84 8.4 48
42 4.2 9
73 7.3 26
67 6.7 69

7146
702

[4.49 0.08 2.3 0.6 0.67 1.08 2.93 1.27 2.75 4.25 2.66 2.24 2.59 0.2 0.44 4.25 2.67 4.86 1.3 4.78 3.61 2.65 4.42 2.16 1.45 1.96 1.4 2.27 3.73 4.48 3.58 1.44 0.56 1.73 4.16 4.7 0.74 1.06 0.44 0.66 3.71 4.67 0.38 3.43 1.99 3.76 0.53 0.79 4.55 3.94 1.03 4.36 0.71 3.56 0.56 0.66 0.66 2.97 4.67 1.09 3.06 3.61 0.04 2.62 3.49 1.95 1.24 4.19 0.17 2.7 4.33 2.6 2.98 0.21 4.77 0.66 4.02 3.92 0.49 1.62 3.11 4.48 1.0 3.24 1.72 0.98 1.79 3.78 0.85 2.58 1.69 4.81 3.58 0.98 3.65 0.76 4.97 2.6 2.4 3.18 3.23 1.5 3.13 2.12 3.1 1.3 1.34 0.67 4.43 2.62 3.64 1.25 2.09 4.77 0.8 3.98 4.5 0.46 2.05 0.99 1.87 3.12 3.14 2.64 2.38 4.01 2.99 2.29 2.51 3.97 2.18 0.92 3.93 2.62 0.23 3.75 2.81 0.02 0.48 3.01]

[64 44 74 47 92 70 81 72 61 26 40 71 36 96 89 49 73 88 89 6 53 96 76 95 29 76 94 48 98 47 82 64 64 5 48 45 88 85 84 31 43 98 22 86 75 35 2 94 3 48 51 100 89 28 93 28 21 87 64 54 41 47 52 11 96 4 61 15 28 22 26 94 74 3 12 73 99 31 25 3 2 50 51 94 86 50 64 4 6 79 25 1 13 68 4 13 97 45 64 4 53 72 26 56 69 18 99 83 47 29 99 11 93 25 21 47 75 81 33 9 36 57 28 31 97 3 12 36 75 75 66 65 87 72 5 82 85 3 50 28]
