instances/knapsack/discrete_knapsack_uncertainty/knapsack_140_10.lp
\ Model knapsack_140_10
\ LP format - for model browsing. Use MPS format to capture full model detail.
\ Signature: 0x9977cb8fbdb63468
Minimize
  - 86 x[0] - 6 x[1] - 68 x[2] - 40 x[3] - 21 x[4] - 57 x[5] - 5 x[6]
   - 27 x[7] - 78 x[8] - 82 x[9] - 55 x[10] - 79 x[11] - 55 x[12]
   - 98 x[13] - 79 x[14] - 52 x[15] - 26 x[16] - 58 x[17] - 58 x[18]
   - 57 x[19] - 41 x[20] - 15 x[21] - 80 x[22] - 16 x[23] - 13 x[24]
   - 2 x[25] - 84 x[26] - 47 x[27] - 30 x[28] - 68 x[29] - 37 x[30]
   - 24 x[31] - 28 x[32] - 87 x[33] - 75 x[34] - 53 x[35] - 21 x[36]
   - 59 x[37] - 38 x[38] - 39 x[39] - 40 x[40] - 49 x[41] - 21 x[42]
   - 71 x[43] - 90 x[44] - 47 x[45] - 16 x[46] - 84 x[47] - 100 x[48]
   - 65 x[49] - 15 x[50] - 90 x[51] - 7 x[52] - 21 x[53] - 8 x[54]
   - 22 x[55] - 98 x[56] - 4 x[57] - 84 x[58] - 39 x[59] - 60 x[60]
   - 54 x[61] - 37 x[62] - 53 x[63] - 42 x[64] - 25 x[65] - 69 x[66]
   - 37 x[67] - 68 x[68] - 77 x[69] - x[70] - 75 x[71] - 17 x[72]
   - 93 x[73] - 98 x[74] - 42 x[75] - 78 x[76] - 57 x[77] - 88 x[78]
   - 87 x[79] - 67 x[80] - 26 x[81] - 61 x[82] - 26 x[83] - 37 x[84]
   - 100 x[85] - 58 x[86] - 19 x[87] - 16 x[88] - 86 x[89] - 22 x[90]
   - 81 x[91] - 81 x[92] - 16 x[93] - 56 x[94] - 34 x[95] - 73 x[96]
   - 44 x[97] - 96 x[98] - 96 x[99] - 4 x[100] - 85 x[101] - 74 x[102]
   - 77 x[103] - 63 x[104] - 71 x[105] - 46 x[106] - 24 x[107] - 82 x[108]
   - 32 x[109] - 13 x[110] - 94 x[111] - 37 x[112] - 39 x[113] - 6 x[114]
   - 97 x[115] - 63 x[116] - 49 x[117] - 66 x[118] - 71 x[119] - 61 x[120]
   - 62 x[121] - 62 x[122] - 35 x[123] - 67 x[124] - 76 x[125] - 16 x[126]
   - 98 x[127] - 95 x[128] - 48 x[129] - 26 x[130] - 39 x[131] - 48 x[132]
   - 82 x[133] - 53 x[134] - 3 x[135] - 8 x[136] - 49 x[137] - 3 x[138]
   - 41 x[139]
Subject To
 primal_upper: x[0] + 46 x[1] + 44 x[2] + 77 x[3] + 26 x[4] + 23 x[5]
   + 67 x[6] + 49 x[7] + 91 x[8] + 64 x[9] + 85 x[10] + 25 x[11] + 22 x[12]
   + 10 x[13] + 94 x[14] + 82 x[15] + 83 x[16] + 62 x[17] + 55 x[18]
   + 48 x[19] + 59 x[20] + 25 x[21] + 90 x[22] + 76 x[23] + 18 x[24]
   + 50 x[25] + 92 x[26] + 41 x[27] + 91 x[28] + 81 x[29] + 83 x[30]
   + x[31] + 29 x[32] + 83 x[33] + 86 x[34] + 99 x[35] + 90 x[36]
   + 50 x[37] + 30 x[38] + 28 x[39] + 69 x[40] + 11 x[41] + 84 x[42]
   + 91 x[43] + 81 x[44] + 88 x[45] + 35 x[46] + 31 x[47] + 41 x[48]
   + 58 x[49] + 44 x[50] + 98 x[51] + 55 x[52] + 14 x[53] + 94 x[54]
   + 77 x[55] + 71 x[56] + 12 x[57] + 34 x[58] + 76 x[59] + 66 x[60]
   + 56 x[61] + 97 x[62] + 48 x[63] + 25 x[64] + 62 x[65] + 66 x[66]
   + 84 x[67] + 22 x[68] + 71 x[69] + 7 x[70] + 63 x[71] + 36 x[72]
   + 81 x[73] + 97 x[74] + 74 x[75] + 96 x[76] + 61 x[77] + 34 x[78]
   + 20 x[79] + 39 x[80] + 23 x[81] + 76 x[82] + 39 x[83] + 23 x[84]
   + 31 x[85] + 29 x[86] + 54 x[87] + 8 x[88] + 21 x[89] + 78 x[90]
   + 78 x[91] + 30 x[92] + 65 x[93] + 94 x[94] + 7 x[95] + 63 x[96]
   + 66 x[97] + 34 x[98] + 26 x[99] + 27 x[100] + 42 x[101] + 36 x[102]
   + 94 x[103] + 39 x[104] + 20 x[105] + 85 x[106] + 16 x[107] + 96 x[108]
   + 63 x[109] + 96 x[110] + 9 x[111] + 51 x[112] + 83 x[113] + 75 x[114]
   + 84 x[115] + 81 x[116] + 27 x[117] + 27 x[118] + 58 x[119] + 49 x[120]
   + 70 x[121] + 57 x[122] + 68 x[123] + 63 x[124] + 84 x[125] + x[126]
   + 29 x[127] + 48 x[128] + x[129] + 59 x[130] + 35 x[131] + 96 x[132]
   + 50 x[133] + 38 x[134] + 28 x[135] + 31 x[136] + 28 x[137] + 67 x[138]
   + 6 x[139] + 0.1 r[0] + 4.6 r[1] + 4.4 r[2] + 7.7 r[3] + 2.6 r[4]
   + 2.3 r[5] + 6.7 r[6] + 4.9 r[7] + 9.1 r[8] + 6.4 r[9] + 8.5 r[10]
   + 2.5 r[11] + 2.2 r[12] + r[13] + 9.4 r[14] + 8.2 r[15] + 8.3 r[16]
   + 6.2 r[17] + 5.5 r[18] + 4.8 r[19] + 5.9 r[20] + 2.5 r[21] + 9 r[22]
   + 7.6 r[23] + 1.8 r[24] + 5 r[25] + 9.2 r[26] + 4.1 r[27] + 9.1 r[28]
   + 8.1 r[29] + 8.3 r[30] + 0.1 r[31] + 2.9 r[32] + 8.3 r[33] + 8.6 r[34]
   + 9.9 r[35] + 9 r[36] + 5 r[37] + 3 r[38] + 2.8 r[39] + 6.9 r[40]
   + 1.1 r[41] + 8.4 r[42] + 9.1 r[43] + 8.1 r[44] + 8.8 r[45] + 3.5 r[46]
   + 3.1 r[47] + 4.1 r[48] + 5.8 r[49] + 4.4 r[50] + 9.8 r[51] + 5.5 r[52]
   + 1.4 r[53] + 9.4 r[54] + 7.7 r[55] + 7.1 r[56] + 1.2 r[57] + 3.4 r[58]
   + 7.6 r[59] + 6.6 r[60] + 5.6 r[61] + 9.7 r[62] + 4.8 r[63] + 2.5 r[64]
   + 6.2 r[65] + 6.6 r[66] + 8.4 r[67] + 2.2 r[68] + 7.1 r[69] + 0.7 r[70]
   + 6.3 r[71] + 3.6 r[72] + 8.1 r[73] + 9.7 r[74] + 7.4 r[75] + 9.6 r[76]
   + 6.1 r[77] + 3.4 r[78] + 2 r[79] + 3.9 r[80] + 2.3 r[81] + 7.6 r[82]
   + 3.9 r[83] + 2.3 r[84] + 3.1 r[85] + 2.9 r[86] + 5.4 r[87] + 0.8 r[88]
   + 2.1 r[89] + 7.8 r[90] + 7.8 r[91] + 3 r[92] + 6.5 r[93] + 9.4 r[94]
   + 0.7 r[95] + 6.3 r[96] + 6.6 r[97] + 3.4 r[98] + 2.6 r[99] + 2.7 r[100]
   + 4.2 r[101] + 3.6 r[102] + 9.4 r[103] + 3.9 r[104] + 2 r[105]
   + 8.5 r[106] + 1.6 r[107] + 9.6 r[108] + 6.3 r[109] + 9.6 r[110]
   + 0.9 r[111] + 5.1 r[112] + 8.3 r[113] + 7.5 r[114] + 8.4 r[115]
   + 8.1 r[116] + 2.7 r[117] + 2.7 r[118] + 5.8 r[119] + 4.9 r[120]
   + 7 r[121] + 5.7 r[122] + 6.8 r[123] + 6.3 r[124] + 8.4 r[125]
   + 0.1 r[126] + 2.9 r[127] + 4.8 r[128] + 0.1 r[129] + 5.9 r[130]
   + 3.5 r[131] + 9.6 r[132] + 5 r[133] + 3.8 r[134] + 2.8 r[135]
   + 3.1 r[136] + 2.8 r[137] + 6.7 r[138] + 0.6 r[139] <= 713
 primal_lower: 2.859320800079701 x[0] + 4.323030836748083 x[1]
   + 1.617931190611533 x[2] + 2.181259390091002 x[3]
   + 2.743451635205702 x[4] + 2.679720256987568 x[5]
   + 1.168010980030761 x[6] + 3.017604728149379 x[7]
   + 3.63553800681682 x[8] + 3.668508713704469 x[9]
   + 2.201672474184239 x[10] + 3.97330528489561 x[11]
   + 1.057011173814756 x[12] + 4.128575657390323 x[13]
   + 2.840890824148929 x[14] + 2.500788978764762 x[15]
   + 3.135939664077017 x[16] + 3.783832968926338 x[17]
   + 1.860946060435774 x[18] + 1.46860310429419 x[19]
   + 3.051288271146115 x[20] + 2.958889253841861 x[21]
   + 4.374032270301375 x[22] + 0.4565229851805235 x[23]
   + 4.076040423064896 x[24] + 0.6120922904907929 x[25]
   + 3.336415718507866 x[26] + 3.622979054828917 x[27]
   + 1.291668509073741 x[28] + 1.774812632344342 x[29]
   + 0.9102832672932871 x[30] + 0.9224523402609378 x[31]
   + 1.633481183439255 x[32] + 4.168346611743366 x[33]
   + 3.900341202999554 x[34] + 2.151168945093833 x[35]
   + 0.9753159590346595 x[36] + 4.150306099311083 x[37]
   + 3.446553981625455 x[38] + 0.2547956474409649 x[39]
   + 4.183719426307647 x[40] + 3.670758409337272 x[41]
   + 4.389631437399902 x[42] + 1.924293728165986 x[43]
   + 0.2957059979847205 x[44] + 3.949805917721351 x[45]
   + 3.352557087298829 x[46] + 3.586559927230135 x[47]
   + 1.280197370520816 x[48] + 1.881485157358231 x[49]
   + 3.487441491057326 x[50] + 3.813694550400673 x[51]
   + 0.6182990134470996 x[52] + 3.852255941266561 x[53]
   + 0.3817334177851003 x[54] + 1.048808932409095 x[55]
   + 1.400443822114583 x[56] + 2.728574423192096 x[57]
   + 1.214356089061919 x[58] + 1.562395290668818 x[59]
   + 1.176389543565296 x[60] + 0.5657917407751798 x[61]
   + 3.320534793741007 x[62] + 3.922052307149048 x[63]
   + 1.196043389708855 x[64] + 4.486604102031944 x[65]
   + 2.174495768332805 x[66] + 0.8618157220174102 x[67]
   + 2.978353095059452 x[68] + 0.6495587810013765 x[69]
   + 3.223726653433209 x[70] + 0.6676458856174485 x[71]
   + 1.520211138609713 x[72] + 0.7395113807500556 x[73]
   + 3.12549379882527 x[74] + 0.2716972538788262 x[75]
   + 0.5534110677566143 x[76] + 3.787514252408163 x[77]
   + 3.065156481857713 x[78] + 3.807373747041203 x[79]
   + 4.147467569732505 x[80] + 2.639071472141141 x[81]
   + 2.462773294024703 x[82] + 3.386840625371522 x[83]
   + 3.465760415851656 x[84] + 3.209529708143749 x[85]
   + 1.415430974072341 x[86] + 2.451843591132895 x[87]
   + 0.0176619800608169 x[88] + 0.7662350070442875 x[89]
   + 4.389354324104924 x[90] + 2.338806565702344 x[91]
   + 0.6087369854197148 x[92] + 3.758592230278752 x[93]
   + 3.61046150690758 x[94] + 4.609611029594705 x[95]
   + 0.5508717056327087 x[96] + 4.445197644165026 x[97]
   + 3.31508002682729 x[98] + 3.181843181791679 x[99]
   + 4.422583814055788 x[100] + 1.440758922963518 x[101]
   + 4.173177614954559 x[102] + 0.5070439608089317 x[103]
   + 2.218067326931833 x[104] + 3.244047233580726 x[105]
   + 1.801141476954096 x[106] + 3.55499225220182 x[107]
   + 1.988210826642535 x[108] + 2.421795946683808 x[109]
   + 3.961872796168507 x[110] + 4.228596974109145 x[111]
   + 4.057932536594148 x[112] + 1.856327033786182 x[113]
   + 2.773989723181537 x[114] + 0.3898404044835226 x[115]
   + 1.802525766799867 x[116] + 0.4699789507118846 x[117]
   + 4.332103128535223 x[118] + 2.856057017975137 x[119]
   + 3.905642147953627 x[120] + 2.263952710792097 x[121]
   + 0.8736436373097215 x[122] + 3.057193856056319 x[123]
   + 3.219822745516166 x[124] + 2.745836439117591 x[125]
   + 3.625427376287415 x[126] + 4.297630669737827 x[127]
   + 2.982422909285282 x[128] + 1.289627806533221 x[129]
   + 3.763701085315398 x[130] + 3.422779066264402 x[131]
   + 1.232483296175847 x[132] + 3.686769757545415 x[133]
   + 3.382589719618605 x[134] + 1.174696516754637 x[135]
   + 1.623111825691586 x[136] + 3.707467320219751 x[137]
   + 0.3676982710984206 x[138] + 1.210002443123821 x[139] + 83 u[0]
   + 60 u[1] + 10 u[2] + 27 u[3] + 88 u[4] + 5 u[5] + 61 u[6] + 43 u[7]
   + 25 u[8] + 94 u[9] + 71 u[10] + 55 u[11] + 68 u[12] + 4 u[13]
   + 52 u[14] + 40 u[15] + 93 u[16] + 96 u[17] + 5 u[18] + 42 u[19]
   + 21 u[20] + 47 u[21] + 40 u[22] + 6 u[23] + 96 u[24] + 100 u[25]
   + 70 u[26] + 51 u[27] + 97 u[28] + 91 u[29] + 25 u[30] + 39 u[31]
   + 59 u[32] + 61 u[33] + 44 u[34] + 97 u[35] + 48 u[36] + 20 u[37]
   + 96 u[38] + 90 u[39] + 11 u[40] + 77 u[41] + 38 u[42] + 17 u[43]
   + 51 u[44] + 46 u[45] + 17 u[46] + 9 u[47] + 63 u[48] + 20 u[49]
   + 46 u[50] + 4 u[51] + 21 u[52] + 68 u[53] + 68 u[54] + 3 u[55]
   + 57 u[56] + 70 u[57] + 56 u[58] + 82 u[59] + 60 u[60] + 70 u[61]
   + 47 u[62] + 82 u[63] + 79 u[64] + 44 u[65] + 12 u[66] + 34 u[67]
   + 76 u[68] + u[69] + u[70] + 53 u[71] + 90 u[72] + 7 u[73] + 91 u[74]
   + 4 u[75] + 94 u[76] + 23 u[77] + 28 u[78] + 30 u[79] + 37 u[80]
   + 37 u[81] + 66 u[82] + 69 u[83] + 9 u[84] + 5 u[85] + 71 u[86]
   + 44 u[87] + 78 u[88] + 3 u[89] + 20 u[90] + 4 u[91] + 96 u[92]
   + 3 u[93] + 4 u[94] + 61 u[95] + 25 u[96] + 52 u[97] + 36 u[98]
   + 52 u[99] + 53 u[100] + 16 u[101] + 54 u[102] + 64 u[103] + 29 u[104]
   + 2 u[105] + 75 u[106] + 2 u[107] + 14 u[108] + 97 u[109] + 6 u[110]
   + 39 u[111] + 69 u[112] + 29 u[113] + 81 u[114] + 70 u[115] + 43 u[116]
   + 85 u[117] + 97 u[118] + 28 u[119] + 83 u[120] + 84 u[121] + 47 u[122]
   + 78 u[123] + 65 u[124] + 18 u[125] + 87 u[126] + 43 u[127] + 46 u[128]
   + 35 u[129] + 17 u[130] + 49 u[131] + 70 u[132] + 84 u[133] + 64 u[134]
   + 6 u[135] + 97 u[136] + 2 u[137] + 49 u[138] + 80 u[139] <= 19093
 mccormick1[0]: - u[0] + r[0] <= 0
 mccormick1[1]: - u[1] + r[1] <= 0
 mccormick1[2]: - u[2] + r[2] <= 0
 mccormick1[3]: - u[3] + r[3] <= 0
 mccormick1[4]: - u[4] + r[4] <= 0
 mccormick1[5]: - u[5] + r[5] <= 0
 mccormick1[6]: - u[6] + r[6] <= 0
 mccormick1[7]: - u[7] + r[7] <= 0
 mccormick1[8]: - u[8] + r[8] <= 0
 mccormick1[9]: - u[9] + r[9] <= 0
 mccormick1[10]: - u[10] + r[10] <= 0
 mccormick1[11]: - u[11] + r[11] <= 0
 mccormick1[12]: - u[12] + r[12] <= 0
 mccormick1[13]: - u[13] + r[13] <= 0
 mccormick1[14]: - u[14] + r[14] <= 0
 mccormick1[15]: - u[15] + r[15] <= 0
 mccormick1[16]: - u[16] + r[16] <= 0
 mccormick1[17]: - u[17] + r[17] <= 0
 mccormick1[18]: - u[18] + r[18] <= 0
 mccormick1[19]: - u[19] + r[19] <= 0
 mccormick1[20]: - u[20] + r[20] <= 0
 mccormick1[21]: - u[21] + r[21] <= 0
 mccormick1[22]: - u[22] + r[22] <= 0
 mccormick1[23]: - u[23] + r[23] <= 0
 mccormick1[24]: - u[24] + r[24] <= 0
 mccormick1[25]: - u[25] + r[25] <= 0
 mccormick1[26]: - u[26] + r[26] <= 0
 mccormick1[27]: - u[27] + r[27] <= 0
 mccormick1[28]: - u[28] + r[28] <= 0
 mccormick1[29]: - u[29] + r[29] <= 0
 mccormick1[30]: - u[30] + r[30] <= 0
 mccormick1[31]: - u[31] + r[31] <= 0
 mccormick1[32]: - u[32] + r[32] <= 0
 mccormick1[33]: - u[33] + r[33] <= 0
 mccormick1[34]: - u[34] + r[34] <= 0
 mccormick1[35]: - u[35] + r[35] <= 0
 mccormick1[36]: - u[36] + r[36] <= 0
 mccormick1[37]: - u[37] + r[37] <= 0
 mccormick1[38]: - u[38] + r[38] <= 0
 mccormick1[39]: - u[39] + r[39] <= 0
 mccormick1[40]: - u[40] + r[40] <= 0
 mccormick1[41]: - u[41] + r[41] <= 0
 mccormick1[42]: - u[42] + r[42] <= 0
 mccormick1[43]: - u[43] + r[43] <= 0
 mccormick1[44]: - u[44] + r[44] <= 0
 mccormick1[45]: - u[45] + r[45] <= 0
 mccormick1[46]: - u[46] + r[46] <= 0
 mccormick1[47]: - u[47] + r[47] <= 0
 mccormick1[48]: - u[48] + r[48] <= 0
 mccormick1[49]: - u[49] + r[49] <= 0
 mccormick1[50]: - u[50] + r[50] <= 0
 mccormick1[51]: - u[51] + r[51] <= 0
 mccormick1[52]: - u[52] + r[52] <= 0
 mccormick1[53]: - u[53] + r[53] <= 0
 mccormick1[54]: - u[54] + r[54] <= 0
 mccormick1[55]: - u[55] + r[55] <= 0
 mccormick1[56]: - u[56] + r[56] <= 0
 mccormick1[57]: - u[57] + r[57] <= 0
 mccormick1[58]: - u[58] + r[58] <= 0
 mccormick1[59]: - u[59] + r[59] <= 0
 mccormick1[60]: - u[60] + r[60] <= 0
 mccormick1[61]: - u[61] + r[61] <= 0
 mccormick1[62]: - u[62] + r[62] <= 0
 mccormick1[63]: - u[63] + r[63] <= 0
 mccormick1[64]: - u[64] + r[64] <= 0
 mccormick1[65]: - u[65] + r[65] <= 0
 mccormick1[66]: - u[66] + r[66] <= 0
 mccormick1[67]: - u[67] + r[67] <= 0
 mccormick1[68]: - u[68] + r[68] <= 0
 mccormick1[69]: - u[69] + r[69] <= 0
 mccormick1[70]: - u[70] + r[70] <= 0
 mccormick1[71]: - u[71] + r[71] <= 0
 mccormick1[72]: - u[72] + r[72] <= 0
 mccormick1[73]: - u[73] + r[73] <= 0
 mccormick1[74]: - u[74] + r[74] <= 0
 mccormick1[75]: - u[75] + r[75] <= 0
 mccormick1[76]: - u[76] + r[76] <= 0
 mccormick1[77]: - u[77] + r[77] <= 0
 mccormick1[78]: - u[78] + r[78] <= 0
 mccormick1[79]: - u[79] + r[79] <= 0
 mccormick1[80]: - u[80] + r[80] <= 0
 mccormick1[81]: - u[81] + r[81] <= 0
 mccormick1[82]: - u[82] + r[82] <= 0
 mccormick1[83]: - u[83] + r[83] <= 0
 mccormick1[84]: - u[84] + r[84] <= 0
 mccormick1[85]: - u[85] + r[85] <= 0
 mccormick1[86]: - u[86] + r[86] <= 0
 mccormick1[87]: - u[87] + r[87] <= 0
 mccormick1[88]: - u[88] + r[88] <= 0
 mccormick1[89]: - u[89] + r[89] <= 0
 mccormick1[90]: - u[90] + r[90] <= 0
 mccormick1[91]: - u[91] + r[91] <= 0
 mccormick1[92]: - u[92] + r[92] <= 0
 mccormick1[93]: - u[93] + r[93] <= 0
 mccormick1[94]: - u[94] + r[94] <= 0
 mccormick1[95]: - u[95] + r[95] <= 0
 mccormick1[96]: - u[96] + r[96] <= 0
 mccormick1[97]: - u[97] + r[97] <= 0
 mccormick1[98]: - u[98] + r[98] <= 0
 mccormick1[99]: - u[99] + r[99] <= 0
 mccormick1[100]: - u[100] + r[100] <= 0
 mccormick1[101]: - u[101] + r[101] <= 0
 mccormick1[102]: - u[102] + r[102] <= 0
 mccormick1[103]: - u[103] + r[103] <= 0
 mccormick1[104]: - u[104] + r[104] <= 0
 mccormick1[105]: - u[105] + r[105] <= 0
 mccormick1[106]: - u[106] + r[106] <= 0
 mccormick1[107]: - u[107] + r[107] <= 0
 mccormick1[108]: - u[108] + r[108] <= 0
 mccormick1[109]: - u[109] + r[109] <= 0
 mccormick1[110]: - u[110] + r[110] <= 0
 mccormick1[111]: - u[111] + r[111] <= 0
 mccormick1[112]: - u[112] + r[112] <= 0
 mccormick1[113]: - u[113] + r[113] <= 0
 mccormick1[114]: - u[114] + r[114] <= 0
 mccormick1[115]: - u[115] + r[115] <= 0
 mccormick1[116]: - u[116] + r[116] <= 0
 mccormick1[117]: - u[117] + r[117] <= 0
 mccormick1[118]: - u[118] + r[118] <= 0
 mccormick1[119]: - u[119] + r[119] <= 0
 mccormick1[120]: - u[120] + r[120] <= 0
 mccormick1[121]: - u[121] + r[121] <= 0
 mccormick1[122]: - u[122] + r[122] <= 0
 mccormick1[123]: - u[123] + r[123] <= 0
 mccormick1[124]: - u[124] + r[124] <= 0
 mccormick1[125]: - u[125] + r[125] <= 0
 mccormick1[126]: - u[126] + r[126] <= 0
 mccormick1[127]: - u[127] + r[127] <= 0
 mccormick1[128]: - u[128] + r[128] <= 0
 mccormick1[129]: - u[129] + r[129] <= 0
 mccormick1[130]: - u[130] + r[130] <= 0
 mccormick1[131]: - u[131] + r[131] <= 0
 mccormick1[132]: - u[132] + r[132] <= 0
 mccormick1[133]: - u[133] + r[133] <= 0
 mccormick1[134]: - u[134] + r[134] <= 0
 mccormick1[135]: - u[135] + r[135] <= 0
 mccormick1[136]: - u[136] + r[136] <= 0
 mccormick1[137]: - u[137] + r[137] <= 0
 mccormick1[138]: - u[138] + r[138] <= 0
 mccormick1[139]: - u[139] + r[139] <= 0
 mccormick2[0]: - x[0] + r[0] <= 0
 mccormick2[1]: - x[1] + r[1] <= 0
 mccormick2[2]: - x[2] + r[2] <= 0
 mccormick2[3]: - x[3] + r[3] <= 0
 mccormick2[4]: - x[4] + r[4] <= 0
 mccormick2[5]: - x[5] + r[5] <= 0
 mccormick2[6]: - x[6] + r[6] <= 0
 mccormick2[7]: - x[7] + r[7] <= 0
 mccormick2[8]: - x[8] + r[8] <= 0
 mccormick2[9]: - x[9] + r[9] <= 0
 mccormick2[10]: - x[10] + r[10] <= 0
 mccormick2[11]: - x[11] + r[11] <= 0
 mccormick2[12]: - x[12] + r[12] <= 0
 mccormick2[13]: - x[13] + r[13] <= 0
 mccormick2[14]: - x[14] + r[14] <= 0
 mccormick2[15]: - x[15] + r[15] <= 0
 mccormick2[16]: - x[16] + r[16] <= 0
 mccormick2[17]: - x[17] + r[17] <= 0
 mccormick2[18]: - x[18] + r[18] <= 0
 mccormick2[19]: - x[19] + r[19] <= 0
 mccormick2[20]: - x[20] + r[20] <= 0
 mccormick2[21]: - x[21] + r[21] <= 0
 mccormick2[22]: - x[22] + r[22] <= 0
 mccormick2[23]: - x[23] + r[23] <= 0
 mccormick2[24]: - x[24] + r[24] <= 0
 mccormick2[25]: - x[25] + r[25] <= 0
 mccormick2[26]: - x[26] + r[26] <= 0
 mccormick2[27]: - x[27] + r[27] <= 0
 mccormick2[28]: - x[28] + r[28] <= 0
 mccormick2[29]: - x[29] + r[29] <= 0
 mccormick2[30]: - x[30] + r[30] <= 0
 mccormick2[31]: - x[31] + r[31] <= 0
 mccormick2[32]: - x[32] + r[32] <= 0
 mccormick2[33]: - x[33] + r[33] <= 0
 mccormick2[34]: - x[34] + r[34] <= 0
 mccormick2[35]: - x[35] + r[35] <= 0
 mccormick2[36]: - x[36] + r[36] <= 0
 mccormick2[37]: - x[37] + r[37] <= 0
 mccormick2[38]: - x[38] + r[38] <= 0
 mccormick2[39]: - x[39] + r[39] <= 0
 mccormick2[40]: - x[40] + r[40] <= 0
 mccormick2[41]: - x[41] + r[41] <= 0
 mccormick2[42]: - x[42] + r[42] <= 0
 mccormick2[43]: - x[43] + r[43] <= 0
 mccormick2[44]: - x[44] + r[44] <= 0
 mccormick2[45]: - x[45] + r[45] <= 0
 mccormick2[46]: - x[46] + r[46] <= 0
 mccormick2[47]: - x[47] + r[47] <= 0
 mccormick2[48]: - x[48] + r[48] <= 0
 mccormick2[49]: - x[49] + r[49] <= 0
 mccormick2[50]: - x[50] + r[50] <= 0
 mccormick2[51]: - x[51] + r[51] <= 0
 mccormick2[52]: - x[52] + r[52] <= 0
 mccormick2[53]: - x[53] + r[53] <= 0
 mccormick2[54]: - x[54] + r[54] <= 0
 mccormick2[55]: - x[55] + r[55] <= 0
 mccormick2[56]: - x[56] + r[56] <= 0
 mccormick2[57]: - x[57] + r[57] <= 0
 mccormick2[58]: - x[58] + r[58] <= 0
 mccormick2[59]: - x[59] + r[59] <= 0
 mccormick2[60]: - x[60] + r[60] <= 0
 mccormick2[61]: - x[61] + r[61] <= 0
 mccormick2[62]: - x[62] + r[62] <= 0
 mccormick2[63]: - x[63] + r[63] <= 0
 mccormick2[64]: - x[64] + r[64] <= 0
 mccormick2[65]: - x[65] + r[65] <= 0
 mccormick2[66]: - x[66] + r[66] <= 0
 mccormick2[67]: - x[67] + r[67] <= 0
 mccormick2[68]: - x[68] + r[68] <= 0
 mccormick2[69]: - x[69] + r[69] <= 0
 mccormick2[70]: - x[70] + r[70] <= 0
 mccormick2[71]: - x[71] + r[71] <= 0
 mccormick2[72]: - x[72] + r[72] <= 0
 mccormick2[73]: - x[73] + r[73] <= 0
 mccormick2[74]: - x[74] + r[74] <= 0
 mccormick2[75]: - x[75] + r[75] <= 0
 mccormick2[76]: - x[76] + r[76] <= 0
 mccormick2[77]: - x[77] + r[77] <= 0
 mccormick2[78]: - x[78] + r[78] <= 0
 mccormick2[79]: - x[79] + r[79] <= 0
 mccormick2[80]: - x[80] + r[80] <= 0
 mccormick2[81]: - x[81] + r[81] <= 0
 mccormick2[82]: - x[82] + r[82] <= 0
 mccormick2[83]: - x[83] + r[83] <= 0
 mccormick2[84]: - x[84] + r[84] <= 0
 mccormick2[85]: - x[85] + r[85] <= 0
 mccormick2[86]: - x[86] + r[86] <= 0
 mccormick2[87]: - x[87] + r[87] <= 0
 mccormick2[88]: - x[88] + r[88] <= 0
 mccormick2[89]: - x[89] + r[89] <= 0
 mccormick2[90]: - x[90] + r[90] <= 0
 mccormick2[91]: - x[91] + r[91] <= 0
 mccormick2[92]: - x[92] + r[92] <= 0
 mccormick2[93]: - x[93] + r[93] <= 0
 mccormick2[94]: - x[94] + r[94] <= 0
 mccormick2[95]: - x[95] + r[95] <= 0
 mccormick2[96]: - x[96] + r[96] <= 0
 mccormick2[97]: - x[97] + r[97] <= 0
 mccormick2[98]: - x[98] + r[98] <= 0
 mccormick2[99]: - x[99] + r[99] <= 0
 mccormick2[100]: - x[100] + r[100] <= 0
 mccormick2[101]: - x[101] + r[101] <= 0
 mccormick2[102]: - x[102] + r[102] <= 0
 mccormick2[103]: - x[103] + r[103] <= 0
 mccormick2[104]: - x[104] + r[104] <= 0
 mccormick2[105]: - x[105] + r[105] <= 0
 mccormick2[106]: - x[106] + r[106] <= 0
 mccormick2[107]: - x[107] + r[107] <= 0
 mccormick2[108]: - x[108] + r[108] <= 0
 mccormick2[109]: - x[109] + r[109] <= 0
 mccormick2[110]: - x[110] + r[110] <= 0
 mccormick2[111]: - x[111] + r[111] <= 0
 mccormick2[112]: - x[112] + r[112] <= 0
 mccormick2[113]: - x[113] + r[113] <= 0
 mccormick2[114]: - x[114] + r[114] <= 0
 mccormick2[115]: - x[115] + r[115] <= 0
 mccormick2[116]: - x[116] + r[116] <= 0
 mccormick2[117]: - x[117] + r[117] <= 0
 mccormick2[118]: - x[118] + r[118] <= 0
 mccormick2[119]: - x[119] + r[119] <= 0
 mccormick2[120]: - x[120] + r[120] <= 0
 mccormick2[121]: - x[121] + r[121] <= 0
 mccormick2[122]: - x[122] + r[122] <= 0
 mccormick2[123]: - x[123] + r[123] <= 0
 mccormick2[124]: - x[124] + r[124] <= 0
 mccormick2[125]: - x[125] + r[125] <= 0
 mccormick2[126]: - x[126] + r[126] <= 0
 mccormick2[127]: - x[127] + r[127] <= 0
 mccormick2[128]: - x[128] + r[128] <= 0
 mccormick2[129]: - x[129] + r[129] <= 0
 mccormick2[130]: - x[130] + r[130] <= 0
 mccormick2[131]: - x[131] + r[131] <= 0
 mccormick2[132]: - x[132] + r[132] <= 0
 mccormick2[133]: - x[133] + r[133] <= 0
 mccormick2[134]: - x[134] + r[134] <= 0
 mccormick2[135]: - x[135] + r[135] <= 0
 mccormick2[136]: - x[136] + r[136] <= 0
 mccormick2[137]: - x[137] + r[137] <= 0
 mccormick2[138]: - x[138] + r[138] <= 0
 mccormick2[139]: - x[139] + r[139] <= 0
 mccormick3[0]: x[0] + u[0] - r[0] <= 1
 mccormick3[1]: x[1] + u[1] - r[1] <= 1
 mccormick3[2]: x[2] + u[2] - r[2] <= 1
 mccormick3[3]: x[3] + u[3] - r[3] <= 1
 mccormick3[4]: x[4] + u[4] - r[4] <= 1
 mccormick3[5]: x[5] + u[5] - r[5] <= 1
 mccormick3[6]: x[6] + u[6] - r[6] <= 1
 mccormick3[7]: x[7] + u[7] - r[7] <= 1
 mccormick3[8]: x[8] + u[8] - r[8] <= 1
 mccormick3[9]: x[9] + u[9] - r[9] <= 1
 mccormick3[10]: x[10] + u[10] - r[10] <= 1
 mccormick3[11]: x[11] + u[11] - r[11] <= 1
 mccormick3[12]: x[12] + u[12] - r[12] <= 1
 mccormick3[13]: x[13] + u[13] - r[13] <= 1
 mccormick3[14]: x[14] + u[14] - r[14] <= 1
 mccormick3[15]: x[15] + u[15] - r[15] <= 1
 mccormick3[16]: x[16] + u[16] - r[16] <= 1
 mccormick3[17]: x[17] + u[17] - r[17] <= 1
 mccormick3[18]: x[18] + u[18] - r[18] <= 1
 mccormick3[19]: x[19] + u[19] - r[19] <= 1
 mccormick3[20]: x[20] + u[20] - r[20] <= 1
 mccormick3[21]: x[21] + u[21] - r[21] <= 1
 mccormick3[22]: x[22] + u[22] - r[22] <= 1
 mccormick3[23]: x[23] + u[23] - r[23] <= 1
 mccormick3[24]: x[24] + u[24] - r[24] <= 1
 mccormick3[25]: x[25] + u[25] - r[25] <= 1
 mccormick3[26]: x[26] + u[26] - r[26] <= 1
 mccormick3[27]: x[27] + u[27] - r[27] <= 1
 mccormick3[28]: x[28] + u[28] - r[28] <= 1
 mccormick3[29]: x[29] + u[29] - r[29] <= 1
 mccormick3[30]: x[30] + u[30] - r[30] <= 1
 mccormick3[31]: x[31] + u[31] - r[31] <= 1
 mccormick3[32]: x[32] + u[32] - r[32] <= 1
 mccormick3[33]: x[33] + u[33] - r[33] <= 1
 mccormick3[34]: x[34] + u[34] - r[34] <= 1
 mccormick3[35]: x[35] + u[35] - r[35] <= 1
 mccormick3[36]: x[36] + u[36] - r[36] <= 1
 mccormick3[37]: x[37] + u[37] - r[37] <= 1
 mccormick3[38]: x[38] + u[38] - r[38] <= 1
 mccormick3[39]: x[39] + u[39] - r[39] <= 1
 mccormick3[40]: x[40] + u[40] - r[40] <= 1
 mccormick3[41]: x[41] + u[41] - r[41] <= 1
 mccormick3[42]: x[42] + u[42] - r[42] <= 1
 mccormick3[43]: x[43] + u[43] - r[43] <= 1
 mccormick3[44]: x[44] + u[44] - r[44] <= 1
 mccormick3[45]: x[45] + u[45] - r[45] <= 1
 mccormick3[46]: x[46] + u[46] - r[46] <= 1
 mccormick3[47]: x[47] + u[47] - r[47] <= 1
 mccormick3[48]: x[48] + u[48] - r[48] <= 1
 mccormick3[49]: x[49] + u[49] - r[49] <= 1
 mccormick3[50]: x[50] + u[50] - r[50] <= 1
 mccormick3[51]: x[51] + u[51] - r[51] <= 1
 mccormick3[52]: x[52] + u[52] - r[52] <= 1
 mccormick3[53]: x[53] + u[53] - r[53] <= 1
 mccormick3[54]: x[54] + u[54] - r[54] <= 1
 mccormick3[55]: x[55] + u[55] - r[55] <= 1
 mccormick3[56]: x[56] + u[56] - r[56] <= 1
 mccormick3[57]: x[57] + u[57] - r[57] <= 1
 mccormick3[58]: x[58] + u[58] - r[58] <= 1
 mccormick3[59]: x[59] + u[59] - r[59] <= 1
 mccormick3[60]: x[60] + u[60] - r[60] <= 1
 mccormick3[61]: x[61] + u[61] - r[61] <= 1
 mccormick3[62]: x[62] + u[62] - r[62] <= 1
 mccormick3[63]: x[63] + u[63] - r[63] <= 1
 mccormick3[64]: x[64] + u[64] - r[64] <= 1
 mccormick3[65]: x[65] + u[65] - r[65] <= 1
 mccormick3[66]: x[66] + u[66] - r[66] <= 1
 mccormick3[67]: x[67] + u[67] - r[67] <= 1
 mccormick3[68]: x[68] + u[68] - r[68] <= 1
 mccormick3[69]: x[69] + u[69] - r[69] <= 1
 mccormick3[70]: x[70] + u[70] - r[70] <= 1
 mccormick3[71]: x[71] + u[71] - r[71] <= 1
 mccormick3[72]: x[72] + u[72] - r[72] <= 1
 mccormick3[73]: x[73] + u[73] - r[73] <= 1
 mccormick3[74]: x[74] + u[74] - r[74] <= 1
 mccormick3[75]: x[75] + u[75] - r[75] <= 1
 mccormick3[76]: x[76] + u[76] - r[76] <= 1
 mccormick3[77]: x[77] + u[77] - r[77] <= 1
 mccormick3[78]: x[78] + u[78] - r[78] <= 1
 mccormick3[79]: x[79] + u[79] - r[79] <= 1
 mccormick3[80]: x[80] + u[80] - r[80] <= 1
 mccormick3[81]: x[81] + u[81] - r[81] <= 1
 mccormick3[82]: x[82] + u[82] - r[82] <= 1
 mccormick3[83]: x[83] + u[83] - r[83] <= 1
 mccormick3[84]: x[84] + u[84] - r[84] <= 1
 mccormick3[85]: x[85] + u[85] - r[85] <= 1
 mccormick3[86]: x[86] + u[86] - r[86] <= 1
 mccormick3[87]: x[87] + u[87] - r[87] <= 1
 mccormick3[88]: x[88] + u[88] - r[88] <= 1
 mccormick3[89]: x[89] + u[89] - r[89] <= 1
 mccormick3[90]: x[90] + u[90] - r[90] <= 1
 mccormick3[91]: x[91] + u[91] - r[91] <= 1
 mccormick3[92]: x[92] + u[92] - r[92] <= 1
 mccormick3[93]: x[93] + u[93] - r[93] <= 1
 mccormick3[94]: x[94] + u[94] - r[94] <= 1
 mccormick3[95]: x[95] + u[95] - r[95] <= 1
 mccormick3[96]: x[96] + u[96] - r[96] <= 1
 mccormick3[97]: x[97] + u[97] - r[97] <= 1
 mccormick3[98]: x[98] + u[98] - r[98] <= 1
 mccormick3[99]: x[99] + u[99] - r[99] <= 1
 mccormick3[100]: x[100] + u[100] - r[100] <= 1
 mccormick3[101]: x[101] + u[101] - r[101] <= 1
 mccormick3[102]: x[102] + u[102] - r[102] <= 1
 mccormick3[103]: x[103] + u[103] - r[103] <= 1
 mccormick3[104]: x[104] + u[104] - r[104] <= 1
 mccormick3[105]: x[105] + u[105] - r[105] <= 1
 mccormick3[106]: x[106] + u[106] - r[106] <= 1
 mccormick3[107]: x[107] + u[107] - r[107] <= 1
 mccormick3[108]: x[108] + u[108] - r[108] <= 1
 mccormick3[109]: x[109] + u[109] - r[109] <= 1
 mccormick3[110]: x[110] + u[110] - r[110] <= 1
 mccormick3[111]: x[111] + u[111] - r[111] <= 1
 mccormick3[112]: x[112] + u[112] - r[112] <= 1
 mccormick3[113]: x[113] + u[113] - r[113] <= 1
 mccormick3[114]: x[114] + u[114] - r[114] <= 1
 mccormick3[115]: x[115] + u[115] - r[115] <= 1
 mccormick3[116]: x[116] + u[116] - r[116] <= 1
 mccormick3[117]: x[117] + u[117] - r[117] <= 1
 mccormick3[118]: x[118] + u[118] - r[118] <= 1
 mccormick3[119]: x[119] + u[119] - r[119] <= 1
 mccormick3[120]: x[120] + u[120] - r[120] <= 1
 mccormick3[121]: x[121] + u[121] - r[121] <= 1
 mccormick3[122]: x[122] + u[122] - r[122] <= 1
 mccormick3[123]: x[123] + u[123] - r[123] <= 1
 mccormick3[124]: x[124] + u[124] - r[124] <= 1
 mccormick3[125]: x[125] + u[125] - r[125] <= 1
 mccormick3[126]: x[126] + u[126] - r[126] <= 1
 mccormick3[127]: x[127] + u[127] - r[127] <= 1
 mccormick3[128]: x[128] + u[128] - r[128] <= 1
 mccormick3[129]: x[129] + u[129] - r[129] <= 1
 mccormick3[130]: x[130] + u[130] - r[130] <= 1
 mccormick3[131]: x[131] + u[131] - r[131] <= 1
 mccormick3[132]: x[132] + u[132] - r[132] <= 1
 mccormick3[133]: x[133] + u[133] - r[133] <= 1
 mccormick3[134]: x[134] + u[134] - r[134] <= 1
 mccormick3[135]: x[135] + u[135] - r[135] <= 1
 mccormick3[136]: x[136] + u[136] - r[136] <= 1
 mccormick3[137]: x[137] + u[137] - r[137] <= 1
 mccormick3[138]: x[138] + u[138] - r[138] <= 1
 mccormick3[139]: x[139] + u[139] - r[139] <= 1
Bounds
Binaries
 x[0] x[1] x[2] x[3] x[4] x[5] x[6] x[7] x[8] x[9] x[10] x[11] x[12] x[13]
 x[14] x[15] x[16] x[17] x[18] x[19] x[20] x[21] x[22] x[23] x[24] x[25]
 x[26] x[27] x[28] x[29] x[30] x[31] x[32] x[33] x[34] x[35] x[36] x[37]
 x[38] x[39] x[40] x[41] x[42] x[43] x[44] x[45] x[46] x[47] x[48] x[49]
 x[50] x[51] x[52] x[53] x[54] x[55] x[56] x[57] x[58] x[59] x[60] x[61]
 x[62] x[63] x[64] x[65] x[66] x[67] x[68] x[69] x[70] x[71] x[72] x[73]
 x[74] x[75] x[76] x[77] x[78] x[79] x[80] x[81] x[82] x[83] x[84] x[85]
 x[86] x[87] x[88] x[89] x[90] x[91] x[92] x[93] x[94] x[95] x[96] x[97]
 x[98] x[99] x[100] x[101] x[102] x[103] x[104] x[105] x[106] x[107] x[108]
 x[109] x[110] x[111] x[112] x[113] x[114] x[115] x[116] x[117] x[118]
 x[119] x[120] x[121] x[122] x[123] x[124] x[125] x[126] x[127] x[128]
 x[129] x[130] x[131] x[132] x[133] x[134] x[135] x[136] x[137] x[138]
 x[139] u[0] u[1] u[2] u[3] u[4] u[5] u[6] u[7] u[8] u[9] u[10] u[11] u[12]
 u[13] u[14] u[15] u[16] u[17] u[18] u[19] u[20] u[21] u[22] u[23] u[24]
 u[25] u[26] u[27] u[28] u[29] u[30] u[31] u[32] u[33] u[34] u[35] u[36]
 u[37] u[38] u[39] u[40] u[41] u[42] u[43] u[44] u[45] u[46] u[47] u[48]
 u[49] u[50] u[51] u[52] u[53] u[54] u[55] u[56] u[57] u[58] u[59] u[60]
 u[61] u[62] u[63] u[64] u[65] u[66] u[67] u[68] u[69] u[70] u[71] u[72]
 u[73] u[74] u[75] u[76] u[77] u[78] u[79] u[80] u[81] u[82] u[83] u[84]
 u[85] u[86] u[87] u[88] u[89] u[90] u[91] u[92] u[93] u[94] u[95] u[96]
 u[97] u[98] u[99] u[100] u[101] u[102] u[103] u[104] u[105] u[106] u[107]
 u[108] u[109] u[110] u[111] u[112] u[113] u[114] u[115] u[116] u[117]
 u[118] u[119] u[120] u[121] u[122] u[123] u[124] u[125] u[126] u[127]
 u[128] u[129] u[130] u[131] u[132] u[133] u[134] u[135] u[136] u[137]
 u[138] u[139] r[0] r[1] r[2] r[3] r[4] r[5] r[6] r[7] r[8] r[9] r[10]
 r[11] r[12] r[13] r[14] r[15] r[16] r[17] r[18] r[19] r[20] r[21] r[22]
 r[23] r[24] r[25] r[26] r[27] r[28] r[29] r[30] r[31] r[32] r[33] r[34]
 r[35] r[36] r[37] r[38] r[39] r[40] r[41] r[42] r[43] r[44] r[45] r[46]
 r[47] r[48] r[49] r[50] r[51] r[52] r[53] r[54] r[55] r[56] r[57] r[58]
 r[59] r[60] r[61] r[62] r[63] r[64] r[65] r[66] r[67] r[68] r[69] r[70]
 r[71] r[72] r[73] r[74] r[75] r[76] r[77] r[78] r[79] r[80] r[81] r[82]
 r[83] r[84] r[85] r[86] r[87] r[88] r[89] r[90] r[91] r[92] r[93] r[94]
 r[95] r[96] r[97] r[98] r[99] r[100] r[101] r[102] r[103] r[104] r[105]
 r[106] r[107] r[108] r[109] r[110] r[111] r[112] r[113] r[114] r[115]
 r[116] r[117] r[118] r[119] r[120] r[121] r[122] r[123] r[124] r[125]
 r[126] r[127] r[128] r[129] r[130] r[131] r[132] r[133] r[134] r[135]
 r[136] r[137] r[138] r[139]
End
